
Gurobi 9.5.2 (mac64[arm]) logging started Mon May  1 18:44:35 2023

Set parameter LogFile to value "Java/output/special_mip/scenario_seed_2_nJob_50_machineCount_2/mip_increment_1/log.txt"
Gurobi Optimizer version 9.5.2 build v9.5.2rc0 (mac64[arm])
Thread count: 8 physical cores, 8 logical processors, using up to 8 threads
Optimize a model with 3908 rows, 94240 columns and 1083308 nonzeros
Model fingerprint: 0x267a1136
Variable types: 0 continuous, 94240 integer (94240 binary)
Coefficient statistics:
  Matrix range     [1e+00, 3e+02]
  Objective range  [3e+00, 9e+06]
  Bounds range     [1e+00, 1e+00]
  RHS range        [1e+00, 1e+00]
Presolve removed 96 rows and 6644 columns
Presolve time: 1.08s
Presolved: 3812 rows, 87596 columns, 1010441 nonzeros
Variable types: 0 continuous, 87596 integer (87594 binary)

Root simplex log...

Iteration    Objective       Primal Inf.    Dual Inf.      Time
   19250    1.7379947e+04   9.034456e+04   0.000000e+00      5s
   36197    1.9135943e+04   7.749816e+04   0.000000e+00     10s
   51116    1.9539107e+04   3.094235e+04   0.000000e+00     15s
   60734    1.9558761e+04   0.000000e+00   0.000000e+00     20s

Root relaxation: objective 1.955876e+04, 60734 iterations, 18.73 seconds (51.41 work units)
Total elapsed time = 20.22s

    Nodes    |    Current Node    |     Objective Bounds      |     Work
 Expl Unexpl |  Obj  Depth IntInf | Incumbent    BestBd   Gap | It/Node Time

     0     0 19558.7613    0  663          - 19558.7613      -     -   20s
     0     0 19597.2171    0  867          - 19597.2171      -     -   29s
     0     0 19611.0097    0  872          - 19611.0097      -     -   36s
     0     0 19611.5064    0  882          - 19611.5064      -     -   37s
     0     0 19611.5122    0  891          - 19611.5122      -     -   37s
     0     0 19611.5122    0  892          - 19611.5122      -     -   37s
     0     0 19641.1099    0  943          - 19641.1099      -     -   46s
H    0     0                    1.829289e+07 19641.1099   100%     -   46s
H    0     0                    1.094671e+07 19641.1099   100%     -   46s
     0     0 19650.0549    0  954 1.0947e+07 19650.0549   100%     -   52s
     0     0 19650.4708    0  954 1.0947e+07 19650.4708   100%     -   53s
     0     0 19650.5288    0  985 1.0947e+07 19650.5288   100%     -   53s
     0     0 19650.5385    0  976 1.0947e+07 19650.5385   100%     -   54s
     0     0 19693.8063    0  992 1.0947e+07 19693.8063   100%     -   65s
H    0     0                    9185705.0000 19693.8063   100%     -   66s
H    0     0                    1295565.0000 19693.8063  98.5%     -  114s
     0     0 19698.1885    0 1028 1295565.00 19698.1885  98.5%     -  119s
     0     0 19698.2766    0 1010 1295565.00 19698.2766  98.5%     -  120s
     0     0 19698.4034    0 1022 1295565.00 19698.4034  98.5%     -  120s
     0     0 19698.4064    0 1031 1295565.00 19698.4064  98.5%     -  121s
     0     0 19729.0750    0 1037 1295565.00 19729.0750  98.5%     -  130s
H    0     0                    1271730.0000 19729.0750  98.4%     -  131s
     0     0 19732.8876    0 1041 1271730.00 19732.8876  98.4%     -  134s
     0     0 19733.3431    0 1054 1271730.00 19733.3431  98.4%     -  136s
     0     0 19733.3943    0 1067 1271730.00 19733.3943  98.4%     -  136s
     0     0 19733.4025    0 1058 1271730.00 19733.4025  98.4%     -  137s
     0     0 19754.3653    0 1077 1271730.00 19754.3653  98.4%     -  145s
     0     0 19762.2764    0 1125 1271730.00 19762.2764  98.4%     -  151s
     0     0 19765.1249    0 1104 1271730.00 19765.1249  98.4%     -  154s
     0     0 19765.1595    0 1105 1271730.00 19765.1595  98.4%     -  155s
     0     0 19797.1347    0 1073 1271730.00 19797.1347  98.4%     -  163s
H    0     0                    1266075.0000 19797.1347  98.4%     -  164s
     0     0 19799.8493    0 1106 1266075.00 19799.8493  98.4%     -  167s
     0     0 19800.3598    0 1106 1266075.00 19800.3598  98.4%     -  168s
     0     0 19800.3783    0 1116 1266075.00 19800.3783  98.4%     -  168s
     0     0 19832.0844    0 1089 1266075.00 19832.0844  98.4%     -  177s
     0     0 19838.1053    0 1137 1266075.00 19838.1053  98.4%     -  181s
     0     0 19838.2798    0 1156 1266075.00 19838.2798  98.4%     -  181s
     0     0 19838.6109    0 1169 1266075.00 19838.6109  98.4%     -  182s
     0     0 19838.6752    0 1158 1266075.00 19838.6752  98.4%     -  183s
     0     0 19856.0520    0 1182 1266075.00 19856.0520  98.4%     -  189s
H    0     0                    1264329.0000 19856.0520  98.4%     -  190s
     0     0 19859.2273    0 1210 1264329.00 19859.2273  98.4%     -  193s
     0     0 19861.8152    0 1219 1264329.00 19861.8152  98.4%     -  196s
     0     0 19862.4386    0 1213 1264329.00 19862.4386  98.4%     -  197s
     0     0 19863.2997    0 1206 1264329.00 19863.2997  98.4%     -  198s
     0     0 19863.6720    0 1232 1264329.00 19863.6720  98.4%     -  199s
     0     0 19863.7060    0 1234 1264329.00 19863.7060  98.4%     -  200s
     0     0 19882.0081    0 1217 1264329.00 19882.0081  98.4%     -  207s
H    0     0                    1264325.0000 19882.0081  98.4%     -  207s
     0     0 19884.5867    0 1295 1264325.00 19884.5867  98.4%     -  210s
     0     0 19885.9265    0 1278 1264325.00 19885.9265  98.4%     -  212s
     0     0 19886.2431    0 1284 1264325.00 19886.2431  98.4%     -  213s
     0     0 19886.2454    0 1278 1264325.00 19886.2454  98.4%     -  213s
     0     0 19921.1956    0 1318 1264325.00 19921.1956  98.4%     -  225s
H    0     0                    1202758.0000 19921.1956  98.3%     -  225s
     0     0 19924.2259    0 1266 1202758.00 19924.2259  98.3%     -  228s
     0     0 19924.5412    0 1286 1202758.00 19924.5412  98.3%     -  229s
     0     0 19924.5412    0 1272 1202758.00 19924.5412  98.3%     -  229s
     0     0 19941.9857    0 1317 1202758.00 19941.9857  98.3%     -  235s
H    0     0                    1202754.0000 19941.9857  98.3%     -  235s
     0     0 19947.3969    0 1310 1202754.00 19947.3969  98.3%     -  240s
     0     0 19948.8955    0 1310 1202754.00 19948.8955  98.3%     -  242s
     0     0 19949.3184    0 1314 1202754.00 19949.3184  98.3%     -  243s
     0     0 19949.3652    0 1325 1202754.00 19949.3652  98.3%     -  243s
     0     0 19965.4130    0 1335 1202754.00 19965.4130  98.3%     -  251s
H    0     0                    1199786.0000 19965.4130  98.3%     -  251s
     0     0 19967.1880    0 1349 1199786.00 19967.1880  98.3%     -  254s
     0     0 19967.3861    0 1357 1199786.00 19967.3861  98.3%     -  255s
     0     0 19967.4445    0 1356 1199786.00 19967.4445  98.3%     -  255s
     0     0 19981.7705    0 1344 1199786.00 19981.7705  98.3%     -  262s
     0     0 19986.3686    0 1362 1199786.00 19986.3686  98.3%     -  268s
     0     0 19990.7036    0 1363 1199786.00 19990.7036  98.3%     -  272s
     0     0 19991.0937    0 1366 1199786.00 19991.0937  98.3%     -  273s
     0     0 19991.3209    0 1376 1199786.00 19991.3209  98.3%     -  274s
     0     0 19991.4483    0 1377 1199786.00 19991.4483  98.3%     -  275s
     0     0 20006.8955    0 1333 1199786.00 20006.8955  98.3%     -  280s
H    0     0                    1177895.0000 20006.8955  98.3%     -  281s
     0     0 20008.5133    0 1353 1177895.00 20008.5133  98.3%     -  283s
     0     0 20008.8203    0 1345 1177895.00 20008.8203  98.3%     -  284s
     0     0 20008.8609    0 1368 1177895.00 20008.8609  98.3%     -  285s
     0     0 20023.5789    0 1319 1177895.00 20023.5789  98.3%     -  294s
H    0     0                    1176084.0000 20023.5789  98.3%     -  294s
     0     0 20032.8523    0 1336 1176084.00 20032.8523  98.3%     -  302s
     0     0 20034.6822    0 1368 1176084.00 20034.6822  98.3%     -  305s
     0     0 20034.8724    0 1382 1176084.00 20034.8724  98.3%     -  305s
     0     0 20061.6719    0 1345 1176084.00 20061.6719  98.3%     -  314s
H    0     0                    219340.00000 20061.6719  90.9%     -  315s
     0     0 20080.3481    0 1355 219340.000 20080.3481  90.8%     -  334s
     0     0 20080.9338    0 1333 219340.000 20080.9338  90.8%     -  336s
     0     0 20080.9975    0 1334 219340.000 20080.9975  90.8%     -  336s
     0     0 20097.6541    0 1284 219340.000 20097.6541  90.8%     -  344s
H    0     0                    218364.00000 20097.6541  90.8%     -  344s
     0     0 20112.5424    0 1332 218364.000 20112.5424  90.8%     -  349s
     0     0 20113.7522    0 1329 218364.000 20113.7522  90.8%     -  351s
     0     0 20114.6392    0 1338 218364.000 20114.6392  90.8%     -  353s
     0     0 20114.7063    0 1345 218364.000 20114.7063  90.8%     -  353s
     0     0 20127.1001    0 1327 218364.000 20127.1001  90.8%     -  360s
H    0     0                    217724.00000 20127.1001  90.8%     -  363s
     0     0 20130.1520    0 1360 217724.000 20130.1520  90.8%     -  365s
     0     0 20130.5958    0 1401 217724.000 20130.5958  90.8%     -  366s
     0     0 20130.6926    0 1394 217724.000 20130.6926  90.8%     -  367s
     0     0 20139.1393    0 1375 217724.000 20139.1393  90.8%     -  372s
H    0     0                    205320.00000 20139.1393  90.2%     -  425s
     0     0 20140.3145    0 1388 205320.000 20140.3145  90.2%     -  427s
     0     0 20140.6245    0 1396 205320.000 20140.6245  90.2%     -  428s
     0     0 20154.9492    0 1383 205320.000 20154.9492  90.2%     -  435s
H    0     0                    205304.00000 20154.9492  90.2%     -  435s
H    0     0                    205288.00000 20154.9492  90.2%     -  435s
H    0     0                    179955.00000 20154.9492  88.8%     -  435s
     0     0 20157.1175    0 1405 179955.000 20157.1175  88.8%     -  438s
     0     0 20157.6176    0 1411 179955.000 20157.6176  88.8%     -  439s
     0     0 20157.6926    0 1412 179955.000 20157.6926  88.8%     -  439s
     0     0 20160.9237    0 1420 179955.000 20160.9237  88.8%     -  443s
H    0     0                    179905.00000 20160.9237  88.8%     -  443s
     0     0 20161.2789    0 1440 179905.000 20161.2789  88.8%     -  444s
     0     0 20163.3943    0 1440 179905.000 20163.3943  88.8%     -  446s
     0     0 20163.3943    0 1422 179905.000 20163.3943  88.8%     -  448s
H    0     0                    179188.00000 20163.3943  88.7%     -  515s
     0     0 20163.3943    0  671 179188.000 20163.3943  88.7%     -  532s
H    0     0                    173391.00000 20163.3943  88.4%     -  533s
H    0     0                    137422.00000 20163.3943  85.3%     -  533s
H    0     0                    137348.00000 20163.3943  85.3%     -  545s
     0     0 20163.3943    0  852 137348.000 20163.3943  85.3%     -  545s
H    0     0                    137343.00000 20163.3943  85.3%     -  545s
H    0     0                    137303.00000 20163.3943  85.3%     -  546s
H    0     0                    133048.00000 20163.3943  84.8%     -  557s
H    0     0                    101777.00000 20163.3943  80.2%     -  557s
H    0     0                    101684.00000 20163.3943  80.2%     -  557s
H    0     0                    99547.000000 20163.3943  79.7%     -  557s
     0     0 20163.3943    0  909 99547.0000 20163.3943  79.7%     -  558s
H    0     0                    99508.000000 20163.3943  79.7%     -  569s
     0     0 20163.3943    0 1030 99508.0000 20163.3943  79.7%     -  569s
     0     0 20163.3943    0 1012 99508.0000 20163.3943  79.7%     -  576s
H    0     0                    96155.000000 20163.3943  79.0%     -  583s
     0     0 20163.3943    0 1119 96155.0000 20163.3943  79.0%     -  583s
     0     0 20163.3943    0 1169 96155.0000 20163.3943  79.0%     -  590s
     0     0 20163.3943    0 1172 96155.0000 20163.3943  79.0%     -  598s
     0     0          -    0      96155.0000 20163.3943  79.0%     -  600s

Cutting planes:
  Clique: 126
  MIR: 105
  StrongCG: 38
  GUB cover: 329
  Zero half: 1
  RLT: 1

Explored 1 nodes (634275 simplex iterations) in 600.01 seconds (1618.15 work units)
Thread count was 8 (of 8 available processors)

Solution count 10: 96155 99508 99547 ... 137422

Time limit reached
Best objective 9.615500000000e+04, best bound 2.016339426814e+04, gap 79.0303%
